47054.9
573 568 567 566 565 556 555 557 558 559 560 561 550 551 549 548 547 546 545 544 543 541 542 537 536 535 538 540 539 15 14 23 22 472 473 474 471 475 477 478 476 479 480 481 483 486 487 488 489 522 523 521 520 519 524 525 526 527 528 18 482 19 20 21 17 16 532 533 531 534 530 529 490 491 516 515 514 492 493 494 511 510 512 513 509 497 498 499 500 501 502 450 451 452 453 454 455 467 468 469 470 26 27 28 29 30 32 31 466 464 465 400 399 398 401 403 402 404 393 392 394 391 390 388 389 376 377 378 379 380 381 382 383 384 346 345 344 343 342 40 41 42 43 44 45 46 61 60 62 63 64 58 57 59 56 53 52 50 51 47 48 81 82 83 84 85 39 38 86 87 88 89 37 36 34 35 33 397 396 395 386 385 387 347 348 354 355 353 352 351 349 350 341 340 339 338 337 336 333 330 329 331 332 325 324 323 322 321 320 319 318 317 316 313 314 315 311 310 309 308 307 275 274 273 272 271 65 66 67 68 265 264 263 262 261 260 257 259 258 199 198 197 196 195 194 193 192 183 184 185 182 181 180 179 178 177 202 201 200 251 250 249 248 247 246 245 244 207 206 205 204 203 175 176 166 165 168 169 167 173 174 172 171 170 164 189 190 188 186 187 191 148 149 150 151 152 153 154 156 155 163 162 161 217 218 219 220 221 222 223 224 225 226 211 210 212 214 213 215 216 160 159 158 157 147 146 145 144 143 141 140 139 138 137 135 136 119 118 117 116 115 114 113 110 111 112 121 74 73 72 75 76 77 109 108 107 106 105 104 103 102 101 100 99 3 4 5 553 554 552 6 7 8 10 9 11 12 13 24 25 95 96 94 93 97 92 91 90 98 80 49 79 78 55 54 71 70 69 266 269 270 267 268 255 256 253 252 254 276 277 278 279 280 303 305 304 301 302 306 281 282 298 299 300 297 296 295 294 293 292 286 287 291 288 289 290 239 238 237 236 235 234 240 241 242 243 233 232 230 231 208 209 227 228 229 285 284 283 312 326 328 334 335 327 356 357 358 359 360 361 362 363 364 368 367 366 365 375 374 373 372 408 409 410 406 407 405 411 412 460 461 459 458 457 445 446 447 448 449 503 504 505 506 507 508 496 495 485 484 456 444 443 441 442 440 439 438 437 434 433 435 436 415 416 417 414 418 419 413 420 427 428 429 430 431 432 425 426 421 424 423 422 370 369 371 462 463 2 1 0 569 572 571 570 564 563 562 120 133 132 124 125 127 126 131 130 129 128 134 123 122 142 518 517 
